105
107
106
55
50
53
54
51
52
49
46
45
43
48
47
44
41
38
42
39
40
37
34
33
31
36
35
32
29
26
30
27
28
25
22
21
24
23
20
19
16
15
18
17
14
13
12
11
10
9
7
8
4
3
1
6
5
2
59
87
88
85
83
80
82
81
79
77
78
75
71
72
69
68
65
67
64
66
63
70
73
62
74
76
61
60
84
86
89
58
91
92
90
93
94
57
96
97
95
98
100
103
102
99
101
56
104
105
